StringID   Type       x          y          demand     ReadyTime  DueDate    ServiceTime  wp1    wp2    wp3  wp4
D0         d          35.0       35.0       0.0        0.0        230.0      0.0        
S0         f          35.0       35.0       0.0        0.0        230.0      0.0          0.6    1      1    1
S1         f          61.0       37.0       0.0        0.0        230.0      0.0          0.6    1      1    1
S2         f          74.0       39.0       0.0        0.0        230.0      0.0          0.6    1      1    1  
S3         f          47.0       57.0       0.0        0.0        230.0      0.0          0.2    0.3    0.2  0.2
S4         f          57.0       65.0       0.0        0.0        230.0      0.0          0.2    0.3    0.2  0.2
S5         f          29.0       59.0       0.0        0.0        230.0      0.0          0.6    1      1    1
S6         f          34.0       71.0       0.0        0.0        230.0      0.0          0.2    0.3    0.2  0.2
S7         f          22.0       58.0       0.0        0.0        230.0      0.0          0.6    1      1    1
S8         f          7.0        61.0       0.0        0.0        230.0      0.0          0.6    1      1    1
S9         f          18.0       41.0       0.0        0.0        230.0      0.0          0.6    1      1    1
S10        f          5.0        39.0       0.0        0.0        230.0      0.0          0.6    1      1    1
S11        f          14.0       20.0       0.0        0.0        230.0      0.0          0.2    0.3    0.2  0.2
S12        f          0.0        26.0       0.0        0.0        230.0      0.0          0.6    1      1    1
S13        f          24.0       25.0       0.0        0.0        230.0      0.0          0.6    1      1    1
S14        f          26.0       6.0        0.0        0.0        230.0      0.0          0.2    0.3    0.2  0.2 
S15        f          34.0       20.0       0.0        0.0        230.0      0.0          0.6    1      1    1
S16        f          41.0       5.0        0.0        0.0        230.0      0.0          0.6    1      1    1
S17        f          50.0       9.0        0.0        0.0        230.0      0.0          0.6    1      1    1
S18        f          61.0       14.0       0.0        0.0        230.0      0.0          0.2    0.3    0.2  0.2 
S19        f          62.0       21.0       0.0        0.0        230.0      0.0          0.2    0.3    0.2  0.2
S20        f          74.0       30.0       0.0        0.0        230.0      0.0          0.6    1      1    1
C1         c          41.0       49.0       10.0       16.0       67.0       10.0       
C2         c          35.0       17.0       7.0        69.0       135.0      10.0       
C3         c          55.0       45.0       13.0       23.0       105.0      10.0       
C4         c          55.0       20.0       19.0       87.0       137.0      10.0       
C5         c          15.0       30.0       26.0       129.0      199.0      10.0       
C6         c          25.0       30.0       3.0        66.0       134.0      10.0       
C7         c          20.0       50.0       5.0        68.0       118.0      10.0       
C8         c          10.0       43.0       9.0        27.0       88.0       10.0       
C9         c          55.0       60.0       16.0       121.0      187.0      10.0       
C10        c          30.0       60.0       16.0       134.0      190.0      10.0       
C11        c          20.0       65.0       12.0       93.0       153.0      10.0       
C12        c          50.0       35.0       19.0       154.0      205.0      10.0       
C13        c          30.0       25.0       23.0       148.0      208.0      10.0       
C14        c          15.0       10.0       20.0       54.0       116.0      10.0       
C15        c          30.0       5.0        8.0        92.0       146.0      10.0       
C16        c          10.0       20.0       19.0       44.0       108.0      10.0       
C17        c          5.0        30.0       2.0        50.0       106.0      10.0       
C18        c          20.0       40.0       12.0       103.0      161.0      10.0       
C19        c          15.0       60.0       17.0       113.0      175.0      10.0       
C20        c          45.0       65.0       9.0        32.0       85.0       10.0       
C21        c          45.0       20.0       11.0       19.0       86.0       10.0       
C22        c          45.0       10.0       18.0       27.0       87.0       10.0       
C23        c          55.0       5.0        29.0       48.0       123.0      10.0       
C24        c          65.0       35.0       3.0        132.0      190.0      10.0       
C25        c          65.0       20.0       6.0        48.0       106.0      10.0       

F Vehicle fuel tank capacity /9.4/
Q Vehicle load capacity /200.0/
r fuel consumption rate /0.155/
g inverse refueling rate /0.5/
v average Velocity /1.0/
